min: c;

c = 4.64961998606241 * u3_t10_h0 + 3.98627014373966 * u3_t10_h1 + 3.25328767092482 * u3_t4_h2 + 3.25328767092482 * u3_t10_h2 + 3.59239488268495 * u3_t4_h3 + 3.59239488268495 * u3_t10_h3 + 3.19598769614139 * u3_t4_h4 + 3.19598769614139 * u3_t10_h4 + 3.8678320071914 * u3_t4_h5 + 3.8678320071914 * u3_t10_h5 + 4.24388049632588 * u3_t4_h6 + 4.24388049632588 * u3_t10_h6 + 4.21936487470149 * u3_t4_h7 + 4.21936487470149 * u3_t9_h7 + 4.21936487470149 * u3_t10_h7 + 5.34906140880607 * u3_t4_h8 + 5.34906140880607 * u3_t9_h8 + 4.65137630330035 * u3_t4_h9 + 4.65137630330035 * u3_t9_h9 + 5.55626101448051 * u3_t4_h10 + 5.55626101448051 * u3_t6_h10 + 5.55626101448051 * u3_t9_h10 + 3.77695304066274 * u3_t3_h11 + 3.77695304066274 * u3_t4_h11 + 3.77695304066274 * u3_t6_h11 + 3.77695304066274 * u3_t9_h11 + 5.92466369747881 * u3_t3_h12 + 5.92466369747881 * u3_t4_h12 + 5.92466369747881 * u3_t6_h12 + 5.92466369747881 * u3_t9_h12 + 4.78682354945947 * u3_t3_h13 + 4.78682354945947 * u3_t4_h13 + 4.78682354945947 * u3_t5_h13 + 4.78682354945947 * u3_t6_h13 + 4.78682354945947 * u3_t9_h13 + 5.8992840559455 * u3_t3_h14 + 5.8992840559455 * u3_t4_h14 + 5.8992840559455 * u3_t5_h14 + 5.8992840559455 * u3_t6_h14 + 5.8992840559455 * u3_t9_h14 + 5.80204259026185 * u3_t2_h15 + 5.80204259026185 * u3_t3_h15 + 5.80204259026185 * u3_t4_h15 + 5.80204259026185 * u3_t5_h15 + 5.80204259026185 * u3_t6_h15 + 5.80204259026185 * u3_t9_h15 + 5.43129750551455 * u3_t2_h16 + 5.43129750551455 * u3_t4_h16 + 5.43129750551455 * u3_t5_h16 + 5.43129750551455 * u3_t6_h16 + 5.43129750551455 * u3_t9_h16 + 6.67714147348737 * u3_t2_h17 + 6.67714147348737 * u3_t4_h17 + 6.67714147348737 * u3_t6_h17 + 6.67714147348737 * u3_t9_h17 + 6.55975357216248 * u3_t2_h18 + 6.55975357216248 * u3_t6_h18 + 6.55975357216248 * u3_t9_h18 + 5.18070464439409 * u3_t2_h19 + 5.18070464439409 * u3_t9_h19 + 5.21615442416733 * u3_t1_h20 + 5.21615442416733 * u3_t2_h20 + 5.21615442416733 * u3_t8_h20 + 5.21615442416733 * u3_t9_h20 + 4.80905452915644 * u3_t1_h21 + 4.80905452915644 * u3_t2_h21 + 4.80905452915644 * u3_t7_h21 + 4.80905452915644 * u3_t8_h21 + 4.80905452915644 * u3_t9_h21 + 5.6786259212335 * u3_t1_h22 + 5.6786259212335 * u3_t7_h22 + 5.6786259212335 * u3_t8_h22 + 5.86130658664545 * u3_t1_h23 + 5.86130658664545 * u3_t7_h23 + 5.86130658664545 * u3_t8_h23;
0 <= u3_t1_h20 <= 1;
0 <= u3_t1_h21 <= 1;
0 <= u3_t1_h22 <= 1;
0 <= u3_t1_h23 <= 1;
u3_t1_h20 + u3_t1_h21 + u3_t1_h22 + u3_t1_h23 = 2;
0 <= u3_t2_h15 <= 1;
0 <= u3_t2_h16 <= 1;
0 <= u3_t2_h17 <= 1;
0 <= u3_t2_h18 <= 1;
0 <= u3_t2_h19 <= 1;
0 <= u3_t2_h20 <= 1;
0 <= u3_t2_h21 <= 1;
u3_t2_h15 + u3_t2_h16 + u3_t2_h17 + u3_t2_h18 + u3_t2_h19 + u3_t2_h20 + u3_t2_h21 = 3;
0 <= u3_t3_h11 <= 1;
0 <= u3_t3_h12 <= 1;
0 <= u3_t3_h13 <= 1;
0 <= u3_t3_h14 <= 1;
0 <= u3_t3_h15 <= 1;
u3_t3_h11 + u3_t3_h12 + u3_t3_h13 + u3_t3_h14 + u3_t3_h15 = 2;
0 <= u3_t4_h2 <= 1;
0 <= u3_t4_h3 <= 1;
0 <= u3_t4_h4 <= 1;
0 <= u3_t4_h5 <= 1;
0 <= u3_t4_h6 <= 1;
0 <= u3_t4_h7 <= 1;
0 <= u3_t4_h8 <= 1;
0 <= u3_t4_h9 <= 1;
0 <= u3_t4_h10 <= 1;
0 <= u3_t4_h11 <= 1;
0 <= u3_t4_h12 <= 1;
0 <= u3_t4_h13 <= 1;
0 <= u3_t4_h14 <= 1;
0 <= u3_t4_h15 <= 1;
0 <= u3_t4_h16 <= 1;
0 <= u3_t4_h17 <= 1;
u3_t4_h2 + u3_t4_h3 + u3_t4_h4 + u3_t4_h5 + u3_t4_h6 + u3_t4_h7 + u3_t4_h8 + u3_t4_h9 + u3_t4_h10 + u3_t4_h11 + u3_t4_h12 + u3_t4_h13 + u3_t4_h14 + u3_t4_h15 + u3_t4_h16 + u3_t4_h17 = 3;
0 <= u3_t5_h13 <= 1;
0 <= u3_t5_h14 <= 1;
0 <= u3_t5_h15 <= 1;
0 <= u3_t5_h16 <= 1;
u3_t5_h13 + u3_t5_h14 + u3_t5_h15 + u3_t5_h16 = 2;
0 <= u3_t6_h10 <= 1;
0 <= u3_t6_h11 <= 1;
0 <= u3_t6_h12 <= 1;
0 <= u3_t6_h13 <= 1;
0 <= u3_t6_h14 <= 1;
0 <= u3_t6_h15 <= 1;
0 <= u3_t6_h16 <= 1;
0 <= u3_t6_h17 <= 1;
0 <= u3_t6_h18 <= 1;
u3_t6_h10 + u3_t6_h11 + u3_t6_h12 + u3_t6_h13 + u3_t6_h14 + u3_t6_h15 + u3_t6_h16 + u3_t6_h17 + u3_t6_h18 = 2;
0 <= u3_t7_h21 <= 1;
0 <= u3_t7_h22 <= 1;
0 <= u3_t7_h23 <= 1;
u3_t7_h21 + u3_t7_h22 + u3_t7_h23 = 2;
0 <= u3_t8_h20 <= 1;
0 <= u3_t8_h21 <= 1;
0 <= u3_t8_h22 <= 1;
0 <= u3_t8_h23 <= 1;
u3_t8_h20 + u3_t8_h21 + u3_t8_h22 + u3_t8_h23 = 1;
0 <= u3_t9_h7 <= 1;
0 <= u3_t9_h8 <= 1;
0 <= u3_t9_h9 <= 1;
0 <= u3_t9_h10 <= 1;
0 <= u3_t9_h11 <= 1;
0 <= u3_t9_h12 <= 1;
0 <= u3_t9_h13 <= 1;
0 <= u3_t9_h14 <= 1;
0 <= u3_t9_h15 <= 1;
0 <= u3_t9_h16 <= 1;
0 <= u3_t9_h17 <= 1;
0 <= u3_t9_h18 <= 1;
0 <= u3_t9_h19 <= 1;
0 <= u3_t9_h20 <= 1;
0 <= u3_t9_h21 <= 1;
u3_t9_h7 + u3_t9_h8 + u3_t9_h9 + u3_t9_h10 + u3_t9_h11 + u3_t9_h12 + u3_t9_h13 + u3_t9_h14 + u3_t9_h15 + u3_t9_h16 + u3_t9_h17 + u3_t9_h18 + u3_t9_h19 + u3_t9_h20 + u3_t9_h21 = 2;
0 <= u3_t10_h0 <= 1;
0 <= u3_t10_h1 <= 1;
0 <= u3_t10_h2 <= 1;
0 <= u3_t10_h3 <= 1;
0 <= u3_t10_h4 <= 1;
0 <= u3_t10_h5 <= 1;
0 <= u3_t10_h6 <= 1;
0 <= u3_t10_h7 <= 1;
u3_t10_h0 + u3_t10_h1 + u3_t10_h2 + u3_t10_h3 + u3_t10_h4 + u3_t10_h5 + u3_t10_h6 + u3_t10_h7 = 3;
